
Gurobi 12.0.2 (linux64, C++) logging started Thu Jun 19 08:00:19 2025

Set parameter LogFile to value "log/instances/scenario4/fully_correlated_sc4/300/kpfs_4.txt.log"

Gurobi 12.0.2 (linux64, C++) logging started Thu Jun 19 08:01:42 2025

Set parameter LogFile to value "log/instances/scenario4/fully_correlated_sc4/300/kpfs_4.txt.log"

Gurobi 12.0.2 (linux64, C++) logging started Thu Jun 19 08:02:53 2025

Set parameter LogFile to value "log/instances/scenario4/fully_correlated_sc4/300/kpfs_4.txt.log"

Gurobi 12.0.2 (linux64, C++) logging started Thu Jun 19 08:03:57 2025

Set parameter LogFile to value "log/instances/scenario4/fully_correlated_sc4/300/kpfs_4.txt.log"

Gurobi 12.0.2 (linux64, C++) logging started Thu Jun 19 13:24:29 2025

Set parameter WLSAccessID
Set parameter WLSSecret
Set parameter LicenseID to value 2679381
Set parameter LogFile to value "log/instances/scenario4/fully_correlated_sc4/300/kpfs_4.txt.log"
Academic license 2679381 - for non-commercial use only - registered to be___@poli.ufrj.br
Set parameter TimeLimit to value 1800
Set parameter Threads to value 1
Gurobi Optimizer version 12.0.2 build v12.0.2rc0 (linux64 - "Ubuntu 24.04.1 LTS")

CPU model: 13th Gen Intel(R) Core(TM) i7-1355U, instruction set [SSE2|AVX|AVX2]
Thread count: 6 physical cores, 12 logical processors, using up to 1 threads

Non-default parameters:
TimeLimit  1800
Threads  1

Academic license 2679381 - for non-commercial use only - registered to be___@poli.ufrj.br
Optimize a model with 902 rows, 1200 columns and 9694 nonzeros
Model fingerprint: 0xcc6ec0b2
Variable types: 0 continuous, 1200 integer (300 binary)
Coefficient statistics:
  Matrix range     [1e+00, 3e+01]
  Objective range  [4e+00, 4e+01]
  Bounds range     [1e+00, 1e+01]
  RHS range        [1e+00, 5e+02]
Found heuristic solution: objective 771.0000000
Presolve removed 0 rows and 91 columns
Presolve time: 0.15s
Presolved: 902 rows, 1109 columns, 9512 nonzeros
Variable types: 0 continuous, 1109 integer (300 binary)

Root relaxation: objective 9.540539e+02, 483 iterations, 0.09 seconds (0.02 work units)

    Nodes    |    Current Node    |     Objective Bounds      |     Work
 Expl Unexpl |  Obj  Depth IntInf | Incumbent    BestBd   Gap | It/Node Time

     0     0  954.05393    0  112  771.00000  954.05393  23.7%     -    2s
H    0     0                     784.0000000  954.05393  21.7%     -    2s
H    0     0                     788.0000000  954.05393  21.1%     -    2s
H    0     0                     789.0000000  954.05393  20.9%     -    2s
H    0     0                     790.0000000  954.05393  20.8%     -    2s
H    0     0                     794.0000000  954.05393  20.2%     -    2s
H    0     0                     878.0000000  954.05393  8.66%     -    2s
H    0     0                     883.0000000  954.05393  8.05%     -    2s
H    0     0                     890.0000000  954.05393  7.20%     -    2s
H    0     0                     895.0000000  954.05393  6.60%     -    2s
H    0     0                     896.0000000  954.05393  6.48%     -    2s
H    0     0                     899.0000000  954.05393  6.12%     -    2s
H    0     0                     905.0000000  954.05393  5.42%     -    2s
H    0     0                     907.0000000  954.05393  5.19%     -    2s
H    0     0                     910.0000000  954.05393  4.84%     -    2s
     0     0  952.59767    0  112  910.00000  952.59767  4.68%     -    2s
     0     0  952.56860    0  115  910.00000  952.56860  4.68%     -    3s
     0     0  952.56612    0  113  910.00000  952.56612  4.68%     -    3s
     0     0  952.56552    0  114  910.00000  952.56552  4.68%     -    3s
     0     0  952.56497    0  114  910.00000  952.56497  4.68%     -    3s
     0     0  952.22421    0  112  910.00000  952.22421  4.64%     -    3s
     0     0  951.57684    0  114  910.00000  951.57684  4.57%     -    3s
     0     0  951.57199    0  115  910.00000  951.57199  4.57%     -    3s
     0     0  951.57026    0  116  910.00000  951.57026  4.57%     -    3s
     0     0  951.57000    0  116  910.00000  951.57000  4.57%     -    3s
     0     0  950.94919    0  116  910.00000  950.94919  4.50%     -    3s
     0     0  950.89077    0  116  910.00000  950.89077  4.49%     -    4s
     0     0  950.89077    0  116  910.00000  950.89077  4.49%     -    4s
     0     0  950.75965    0  114  910.00000  950.75965  4.48%     -    4s
     0     0  950.73967    0  114  910.00000  950.73967  4.48%     -    4s
     0     0  950.73385    0  116  910.00000  950.73385  4.48%     -    4s
     0     0  950.69989    0  118  910.00000  950.69989  4.47%     -    4s
     0     0  950.68804    0  115  910.00000  950.68804  4.47%     -    4s
     0     0  950.68251    0  119  910.00000  950.68251  4.47%     -    4s
     0     0  950.68142    0  119  910.00000  950.68142  4.47%     -    4s
     0     0  950.66853    0  117  910.00000  950.66853  4.47%     -    4s
     0     0  950.65807    0  116  910.00000  950.65807  4.47%     -    4s
     0     0  950.65807    0  117  910.00000  950.65807  4.47%     -    4s
     0     0  950.65234    0  121  910.00000  950.65234  4.47%     -    4s
     0     0  950.64385    0  120  910.00000  950.64385  4.47%     -    4s
     0     0  950.63918    0  120  910.00000  950.63918  4.47%     -    4s
     0     2  950.62471    0  120  910.00000  950.62471  4.46%     -    4s
    29    31  945.89937   23  102  910.00000  948.73003  4.26%  43.3    5s
H   78    78                     912.0000000  948.73003  4.03%  34.4    5s
H   78    78                     913.0000000  948.73003  3.91%  34.4    5s
H   78    78                     914.0000000  948.73003  3.80%  34.4    5s
H   78    78                     915.0000000  948.73003  3.69%  34.4    6s
   545   494  938.00111   28  115  915.00000  947.77894  3.58%  33.2   10s
H  548   471                     918.0000000  947.77894  3.24%  33.0   10s
H  548   447                     924.0000000  947.77894  2.57%  33.0   10s
   640   500  929.45748   36   77  924.00000  947.77894  2.57%  39.1   15s
  1265   658  931.31712   34  101  924.00000  943.19727  2.08%  45.7   20s
H 1981   776                     925.0000000  941.07721  1.74%  43.4   24s
  1989   776  934.19693   28  105  925.00000  941.07542  1.74%  43.4   25s
  2553  1030  928.95305   36   84  925.00000  940.02346  1.62%  42.4   30s
  2958  1179  926.40435   35   68  925.00000  939.59124  1.58%  41.9   35s
  3630  1390  935.25593   25   98  925.00000  938.71954  1.48%  41.2   40s
  4752  1755  934.38843   24  104  925.00000  937.74274  1.38%  40.8   45s
  6159  2133     cutoff   36       925.00000  936.97361  1.29%  40.2   50s
  7140  2344  933.75601   30   82  925.00000  936.48105  1.24%  39.8   55s
  8038  2545  930.60323   30  110  925.00000  936.12724  1.20%  39.3   60s
* 8412  2408              35     927.0000000  935.96107  0.97%  39.2   63s
  8668  2433  929.86429   25  109  927.00000  935.81527  0.95%  39.2   65s
  9238  2470  929.23422   34   86  927.00000  935.45364  0.91%  39.2   70s
 10117  2511  932.54699   30   94  927.00000  934.99892  0.86%  38.9   75s
 10202  2510     cutoff   35       927.00000  934.96201  0.86%  38.9   90s
 11073  2495  933.14385   29  100  927.00000  934.54006  0.81%  38.9   95s
 12023  2493  931.38327   25   92  927.00000  934.18781  0.78%  38.6  100s
 12702  2488  933.07727   27   90  927.00000  933.97597  0.75%  38.4  105s
 14293  2384     cutoff   33       927.00000  933.39429  0.69%  38.2  110s
 14992  2317     cutoff   32       927.00000  933.13096  0.66%  38.1  115s
 15983  2191  928.93648   36   81  927.00000  932.80168  0.63%  37.9  120s
 17083  2032  930.77434   30   73  927.00000  932.42996  0.59%  37.6  125s
 18251  1775  930.68027   38   69  927.00000  931.95914  0.53%  37.4  130s
 19424  1465     cutoff   31       927.00000  931.40996  0.48%  37.2  135s
 20150  1232     cutoff   29       927.00000  931.00012  0.43%  36.9  140s
*20483     1              39     930.0000000  930.00000  0.00%  36.8  141s

Cutting planes:
  Gomory: 2
  Cover: 1
  MIR: 5
  Flow cover: 1
  Zero half: 16

Explored 20484 nodes (755371 simplex iterations) in 141.09 seconds (51.41 work units)
Thread count was 1 (of 12 available processors)

Solution count 10: 930 927 925 ... 910

Optimal solution found (tolerance 1.00e-04)
Best objective 9.300000000000e+02, best bound 9.300000000000e+02, gap 0.0000%
